(set-logic QF_S)
(declare-fun _var_0xINPUT_127128_() String)
(declare-fun __woorpje_diseq_pref0_() String)
(declare-fun __woorpje_diseq_suf_l0_() String)
(declare-fun __woorpje_diseq_suf_r0_() String)
(assert (=(str.++  "CvQAfTFbEN" "")(str.++ __woorpje_diseq_pref0_  "T" __woorpje_diseq_suf_l0_  "")) )
(assert (=(str.++ _var_0xINPUT_127128_  "")(str.++ __woorpje_diseq_pref0_  "N" __woorpje_diseq_suf_r0_  "")) )
(check-sat)
